c --- [ banner ] -------------------------------------------------------------
c 
c CaDiCaL Radically Simplified CDCL SAT Solver
c Copyright (c) 2016-2021 A. Biere, M. Fleury, N. Froleyks
c 
c Version 1.5.2 a5f15211db36c3956764e18194dd5bd63bf3b5e6
c g++ (GCC) 9.3.0 -Wall -Wextra -O3 -DNDEBUG
c Fri Oct 21 01:27:37 EDT 2022 Linux gra-login3 3.10.0-1160.66.1.el7.x86_64 x86_64
c 
c --- [ limit ] --------------------------------------------------------------
c 
c setting conflict limit to 200000 conflicts (due to '200000')
c 
c --- [ parsing input ] ------------------------------------------------------
c 
c reading DIMACS file from '33.cubes6969.adj'
c opening file to read '33.cubes6969.adj'
c found 'p cnf 6160 1595475' header
c parsed 1595475 clauses in 18.88 seconds process time
c closing file '33.cubes6969.adj'
c after reading 1457566776 bytes 1390.0 MB
c 
c --- [ options ] ------------------------------------------------------------
c 
c all options are set to their default value
c 
c --- [ solving ] ------------------------------------------------------------
c 
c time measured in process time since initialization
c 
c  seconds    reductions  redundant   irredundant
c          MB     restarts       trail       variables
c            level   conflicts       glue         remaining
c 
c * 18.88 1376  0 0   0    0    0  0% 0 1595422 2456 40%
c { 20.60 1449  0 0   0    0    0  0% 0 1595422 2456 40%
c i 23.76 1508 428 0  11   84   71 31% 25 1595422 2448 40%
c i 23.85 1511 409 0  13   92   75 30% 31 1595422 2399 39%
c i 25.44 1522 251 0  30  183  152 29% 39 1595422 2398 39%
c i 25.76 1522 221 0  30  219  187 29% 39 1595422 2397 39%
c i 25.81 1522 213 0  30  232  199 29% 40 1595422 2396 39%
c - 30.93 1442 175 1  32  300  254 28% 36 283012 2396 39%
c i 31.57 1443 155 1  35  370  309 28% 38 283012 2395 39%
c i 32.23 1443 131 1  40  516  438 28% 37 283012 2392 39%
c i 32.66 1443 128 1  46  591  496 28% 38 283012 2390 39%
c i 32.76 1444 124 1  47  620  519 28% 37 283012 2389 39%
c i 32.80 1444 122 1  47  637  532 28% 37 283012 2388 39%
c i 32.95 1444 116 1  49  705  592 29% 36 283012 2387 39%
c i 34.41 1445 117 1  80  871  725 28% 39 283012 2386 39%
c i 34.43 1445 117 1  80  879  732 28% 39 283012 2385 39%
c i 34.44 1445 116 1  80  882  734 28% 39 283012 2384 39%
c i 34.48 1445 112 1  80  934  784 28% 38 283012 2383 39%
c i 34.61 1445 111 1  83  971  816 28% 39 283012 2382 39%
c } 34.68 1445 111 1  89 1000  841 28% 39 283012 2382 39%
c 
c  seconds    reductions  redundant  irredundant
c          MB     restarts       trail      variables
c            level   conflicts       glue        remaining
c 
c [ 34.68 1445  0 1  89 1000  841  0% 0 283012 2382 39%
c O 34.70 1445 114 1  89 1004  844 28% 48 283012 2382 39%
c i 34.80 1445 23 1  89 1040  869 27% 14 283012 2381 39%
c i 34.83 1445 22 1  89 1079  904 29% 16 283012 2380 39%
c i 34.87 1445 23 1  89 1164  970 31% 18 283012 2379 39%
c - 35.36 1494 23 2  89 1171  854 31% 18 282967 2379 39%
c i 35.45 1494 24 2  89 1239  912 31% 19 282967 2378 39%
c i 35.46 1494 23 2  89 1241  913 31% 19 282967 2377 39%
c i 35.47 1494 24 2  89 1274  936 31% 19 282967 2376 39%
c i 35.51 1494 27 2  89 1328  975 30% 22 282967 2375 39%
c i 35.61 1494 35 2  89 1657 1187 30% 29 282967 2374 39%
c i 35.68 1494 34 2  89 1951 1385 30% 29 282967 2373 39%
c i 35.76 1494 31 2  90 2310 1607 31% 27 282967 2372 39%
c - 36.16 1493 31 3  90 2479 1280 31% 26 282947 2372 39%
c i 36.54 1492 30 3  90 2831 1517 53% 25 282947 2371 38%
c ] 36.59 1492 29 3  90 3001 1638 53% 25 282947 2371 38%
c { 36.59 1492 111 3  90 3001 1638 73% 39 282947 2371 38%
c F 36.64 1492 111 3  92 3005 1642 73% 39 282947 2371 38%
c i 36.78 1492 109 3  95 3025 1657 73% 39 282947 2370 38%
c i 36.80 1492 108 3  95 3030 1661 72% 39 282947 2369 38%
c 
c  seconds     reductions  redundant   irredundant
c          MB      restarts       trail       variables
c             level   conflicts       glue         remaining
c 
c i 36.82 1492 108 3  95 3037 1667 72% 38 282947 2368 38%
c i 36.87 1492 107 3  95 3048 1675 72% 38 282947 2367 38%
c i 36.90 1492 106 3  95 3062 1685 72% 38 282947 2366 38%
c i 37.18 1492 98 3  95 3239 1817 68% 37 282947 2365 38%
c i 39.14 1492 83 3 120 4026 2426 59% 31 282947 2364 38%
c i 39.16 1492 82 3 120 4030 2429 59% 31 282947 2363 38%
c i 39.23 1492 82 3 120 4055 2445 59% 31 282947 2362 38%
c i 39.67 1492 80 3 123 4170 2551 59% 31 282947 2361 38%
c - 40.15 1363 80 4 128 4223 1936 59% 31 282915 2361 38%
c i 41.41 1363 78 4 170 4631 2288 57% 31 282915 2360 38%
c i 41.54 1363 77 4 175 4696 2350 57% 31 282915 2359 38%
c d 42.34 1363 73 4 182 5001 2584 56% 30 270313 2351 38%
c 2 42.40 1363 73 4 182 5001 3251 56% 30 270299 2349 38%
c p 50.18 1363 73 4 182 5001 6010 56% 30 270299 2258 37%
c d 50.67 1363 73 4 182 5001 5689 56% 30 269154 2257 37%
c # 51.73 1363 63 4 199 6007 6493 55% 29 269154 2257 37%
c - 53.08 1364 62 5 231 6401 2871 54% 29 269154 2257 37%
c } 54.62 1364 61 5 269 7004 3348 54% 29 269154 2257 37%
c [ 54.62 1364 29 5 269 7004 3348 53% 25 269154 2257 37%
c - 55.50 1365 27 6 270 8976 2984 52% 23 269154 2257 37%
c 
c  seconds    reductions   redundant   irredundant
c          MB     restarts        trail       variables
c            level    conflicts       glue         remaining
c 
c I 55.89 1365 26 6 271 10010 3571 52% 22 269154 2257 37%
c - 57.40 1365 31 7 273 11985 3442 51% 26 269154 2257 37%
c 2 58.85 1365 35 7 274 15003 6106 51% 30 269153 2257 37%
c p 62.14 1365 35 7 274 15003 8856 51% 30 269153 2256 37%
c ] 62.30 1365 35 7 274 15004 8857 51% 30 269153 2256 37%
c { 62.30 1365 61 7 274 15004 8857 54% 29 269153 2256 37%
c B 62.45 1365 61 7 277 15011 8864 54% 29 269153 2256 37%
c - 63.21 1365 60 8 310 15419 4090 54% 30 269150 2256 37%
c s 64.31 1365 46 8 310 18687 6289 53% 27 267110 2256 37%
c v 68.24 1365 46 8 310 18687 6289 53% 27 267096 2256 37%
c t 68.31 1365 46 8 310 18687 6281 53% 27 267087 2256 37%
c e 69.29 1366 46 8 310 18687 5817 53% 27 264479 940 15%
c s 69.39 1366 46 8 310 18687 5817 53% 27 263502 940 15%
c - 70.97 1366 45 9 310 19282 4423 74% 26 263502 940 15%
c W 71.70 1366 41 9 310 21012 5696 75% 25 263502 940 15%
c } 72.14 1366 39 9 324 22915 6875 75% 25 263502 940 15%
c 1 72.14 1366 39 9 324 22915 6875 75% 25 263502 940 15%
c 
c --- [ writing output ] -----------------------------------------------------
c 
c writing simplified CNF to DIMACS file 'simp/33.cubes6969.adj.simp1'
c * 72.14 1366 39 9 324 22915 6875 75% 25 263502 940 15%
c opening file to write 'simp/33.cubes6969.adj.simp1'
c writing 'p cnf 6160 263502' header
c closing file 'simp/33.cubes6969.adj.simp1'
c after writing 129570944 bytes 123.6 MB
c wrote 263502 clauses in 0.88 seconds process time
c 
c --- [ writing extension ] --------------------------------------------------
c 
c writing extension stack to 'simp/33.cubes6969.adj.ext1'
c opening file to write 'simp/33.cubes6969.adj.ext1'
c closing file 'simp/33.cubes6969.adj.ext1'
c after writing 88270 bytes 0.1 MB
c wrote 3892 witnesses in 0.00 seconds process time
c 
c --- [ result ] -------------------------------------------------------------
c 
s SATISFIABLE
c 
c --- [ run-time profiling ] -------------------------------------------------
c 
c process time taken by individual solving procedures
c (percentage relative to process time for solving)
c 
c        35.09   65.89% search
c        26.97   50.64% unstable
c        18.88   35.44% parse
c        18.17   34.11% simplify
c        11.07   20.78% probe
c         6.21   11.65% stable
c         3.97    7.45% vivify
c         1.85    3.48% elim
c         1.73    3.24% lucky
c         0.19    0.36% subsume
c         0.19    0.35% walk
c         0.08    0.14% ternary
c   =================================
c        53.26   72.94% solve
c 
c last line shows process time for solving
c (percentage relative to total process time)
c 
c --- [ statistics ] ---------------------------------------------------------
c 
c chronological:              4610        20.12 %  of conflicts
c conflicts:                 22915       430.23    per second
c decisions:                 60842      1142.31    per second
c eliminated:                 1316        21.36 %  of all variables
c fixed:                       751        12.19 %  of all variables
c learned:                   22417        97.83 %  per conflict
c learned_lits:            4638981       100.00 %  learned literals
c minimized:                     0         0.00 %  learned literals
c shrunken:                3169246        68.32 %  learned literals
c minishrunken:             257183         5.54 %  learned literals
c propagations:            3387014         0.06 M  per second
c reduced:                    8321        36.31 %  per conflict
c rephased:                      6      3819.17    interval
c restarts:                    324        70.73    interval
c stabilizing:                   2        43.64 %  of conflicts
c substituted:                   9         0.15 %  of all variables
c subsumed:                   9807         0.30 %  of all clauses
c strengthened:               3064         0.09 %  of all clauses
c ternary:                    1466         0.47 %  of resolved
c vivified:                     22         0.00 %  of all clauses
c walked:                        1     22915.00    interval
c weakened:                   3141         3.07    average size
c 
c seconds are measured in process time for solving
c 
c --- [ resources ] ----------------------------------------------------------
c 
c total process time since initialization:        73.02    seconds
c total real time since initialization:           74.19    seconds
c maximum resident set size of process:         1624.30    MB
c 
c --- [ shutting down ] ------------------------------------------------------
c 
c exit 10
WARNING! DIMACS header mismatch: wrong number of variables.
============================[ Problem Statistics ]=============================
|                                                                             |
|  Number of variables:          3251                                         |
|  Number of clauses:          263506                                         |
|  Parse time:                   1.66 s                                       |
|  Simplification time:          0.03 s                                       |
|                                                                             |
============================[ Search Statistics ]====================================================
| Conflicts |          ORIGINAL         |          LEARNT          | Num Sols |      SUBGRAPHS      |
|           |    Vars  Clauses Literals |    Limit  Clauses Lit/Cl |          | Canonical Noncanon. |
=====================================================================================================
|       100 |    3162   263506 28032531 |     2000      100    123 |        0 |        18         0 |
|       253 |    3162   263509 28032707 |     2000      253    128 |        0 |        30         3 |
|       481 |    3162   263512 28032858 |     2000      481    131 |        0 |        41         6 |
|       820 |    3162   263514 28032883 |     2000      820    112 |        0 |        66         8 |
|      1326 |    3162   263514 28032883 |     2000     1326    124 |        0 |        75         8 |
|      2124 |    3162   263553 28033672 |     3601     1125     59 |        0 |       108        47 |
|      3305 |    3162   263595 28034800 |     3601     2306     70 |        0 |       134        89 |
|      5037 |    3162   263619 28035435 |     5001     2238     55 |        0 |       189       113 |
|     46530 |    3162   302550 28802106 |    13613    13143     16 |        0 |      6543     39044 |
|     97138 |    3162   349314 29646217 |    20815    13953     14 |        0 |     14375     85808 |
|    160599 |    3162   407009 30625186 |    26806    19405     13 |        0 |     18557    143503 |
|    211886 |    3162   449647 31313021 |    30410    28696     33 |        0 |     21079    186141 |
|    227152 |    3162   451939 31359263 |    31609    28761     56 |        0 |     21196    188433 |
|    431089 |    3162   636415 34440679 |    44813    25902     19 |        0 |     34249    372909 |
|    472169 |    3162   648303 34595183 |    46008    44577     70 |        0 |     34574    384797 |
|    516878 |    3162   649223 34621042 |    48430    42708     70 |        0 |     34749    385717 |
|    810940 |    3162   877601 38034846 |    61610    37550     14 |        0 |     46481    614095 |
|   1368533 |    3162  1336668 44253093 |    79618    70151     26 |        0 |     63987   1073162 |
=====================================================================================================
Number of solutions   : 0
Canonical subgraphs   : 73864          (21 /sec)
          order  3    : 1              (166667 /sec)
          order  4    : 1              (500000 /sec)
          order  5    : 1              (250000 /sec)
          order  6    : 1              (52632 /sec)
          order  7    : 1              (8621 /sec)
          order  8    : 2              (1360 /sec)
          order  9    : 6              (315 /sec)
          order 10    : 25             (94 /sec)
          order 11    : 109            (31 /sec)
          order 12    : 627            (13 /sec)
          order 13    : 3831           (14 /sec)
          order 14    : 64027          (24 /sec)
          order 15    : 4979           (13 /sec)
          order 16    : 174            (4 /sec)
          order 17    : 67             (3 /sec)
          order 18    : 9              (3 /sec)
          order 19    : 2              (2 /sec)
          order 20    : 1              (1 /sec)
          order 21    : 0              (-nan /sec)
          order 22    : 0              (-nan /sec)
Noncanonical subgraphs: 1333189        (160 /sec)
          order  3    : 0              (-nan /sec)
          order  4    : 0              (-nan /sec)
          order  5    : 0              (-nan /sec)
          order  6    : 0              (-nan /sec)
          order  7    : 0              (-nan /sec)
          order  8    : 0              (-nan /sec)
          order  9    : 0              (-nan /sec)
          order 10    : 0              (-nan /sec)
          order 11    : 0              (-nan /sec)
          order 12    : 0              (-nan /sec)
          order 13    : 9001           (6046 /sec)
          order 14    : 152945         (835 /sec)
          order 15    : 1150210        (144 /sec)
          order 16    : 20739          (130 /sec)
          order 17    : 195            (85 /sec)
          order 18    : 97             (39 /sec)
          order 19    : 2              (9 /sec)
          order 20    : 0              (-nan /sec)
          order 21    : 0              (-nan /sec)
Canonicity checking   : 3438.39 s
Noncanonicity checking: 8311.37 s
Total canonicity time : 11749.8 s
database reductions   : 73
restarts              : 3325
conflicts             : 1736383        (141 /sec)
decisions             : 3322120        (0.00 % random) (269 /sec)
propagations          : 73203069       (5935 /sec)
conflict literals     : 59682089       (58.79 % deleted)
actual reward         : 0.135854
Memory used           : 651.00 MB
CPU time              : 12334.5 s

UNSATISFIABLE
